\ENCODING=ISO-8859-1
\Problem name: instances

Maximize
 obj:
Subject To
 c1: - 37 x2 + 46 x3 + 77 x4 + 35 x5 + 93 x6 + 41 x7 + 65 x8 - 68 x9 + 68 x10
     <= 314
 c2: 95 x1 + 27 x2 + 77 x3 + 5 x4 + 59 x5 + 67 x7 + 32 x8 + 9 x10 <= 232
 c3: 33 x1 + 47 x2 - 34 x3 + 5 x6 + 97 x7 - 24 x8 + 29 x9 - 77 x10 <= 24
 c4: 19 x1 + 23 x2 + 11 x3 - 11 x4 + 77 x5 + 72 x6 + 66 x7 + 74 x9 + 43 x10
     <= 307
 c5: 48 x1 + 76 x2 + 46 x3 + 80 x4 + 47 x5 + 56 x6 + 10 x7 + 87 x8 + 81 x9
     + 44 x10 <= 371
Bounds
      x1 >= 0
      x2 >= 0
      x3 >= 0
      x4 >= 0
      x5 >= 0
      x6 >= 0
      x7 >= 0
      x8 >= 0
      x9 >= 0
      x10 >= 0
Generals
 x1  x2  x3  x4  x5  x6  x7  x8  x9  x10 
End
